COLUMNS

passenger_count
pickup_ID
dropoff_ID
request_time_sec
pickup_district
dropoff_district
LDuals
IDuals
vehicle_ID
pick_position
drop_position

REQUESTS_INFO
3      768       558       29714     290       189       155       155       9         1         3         
1      435       372       29715     52        119       154       154       26        1         2         
3      840       673       29699     290       189       204       204       80        1         3         
1      766       649       29711     290       189       130       130       121       1         2         
1      816       626       29690     290       189       209       209       151       1         3         
2      292       371       29703     87        52        137       137       171       1         2         
1      526       577       29715     52        189       160.5     160.5     179       1         2         
1      688       252       29725     131       206       96        96        190       1         3         
2      947       485       29718     290       189       173       173       215       1         3         
1      947       746       29722     290       290       169       169       235       1         2         
1      970       896       29688     290       291       153       153       313       1         3         
3      840       232       29708     290       266       195       195       331       1         3         
3      596       409       29700     131       52        230       230       337       1         2         
1      344       600       29729     299       280       203       203       345       1         2         
1      817       79        29729     290       98        159       159       347       1         4         
1      883       795       29588     290       290       303       303       363       1         2         
2      860       740       29403     290       50        476       476       383       1         2         
1      795       699       29660     290       290       240       240       403       1         2         
1      397       601       29700     168       189       191       191       423       1         3         
1      816       628       29718     290       189       165       165       432       1         4         
3      417       533       29717     100       199       136       136       456       1         2         
2      884       544       29719     290       52        146       146       468       1         4         
1      355       574       29710     119       189       168       168       475       1         4         
1      331       597       29709     127       131       166       166       499       1         3         
1      817       1491      29682     290       296       227       227       515       1         4         
3      314       461       29521     119       189       345       345       520       1         2         
1      941       946       29674     50        290       166       166       644       1         2         
1      1151      917       29715     291       291       124       124       657       1         2         
2      949       1208      29711     290       192       156       156       665       1         2         
4      655       97        29710     189       9         134       134       678       1         2         
1      968       578       29646     290       189       259       259       695       1         2         
2      925       863       29674     290       290       206       206       703       1         2         
1      861       672       29709     290       189       147       147       760       1         4         
1      501       369       29697     52        52        161       161       771       1         3         
2      874       981       29707     291       291       142       142       806       1         3         
1      874       464       29719     291       168       130       130       806       2         4         
1      863       651       29718     290       189       191       191       820       1         5         
2      838       630       29665     290       189       176       176       855       1         2         
1      902       666       29589     50        131       305       305       880       1         2         
2      840       232       29708     290       266       180       180       886       1         4         
1      836       768       29728     290       290       102       102       932       1         3         
1      836       628       29670     290       189       204       204       932       2         4         
3      884       116       29693     290       9         192       192       944       1         2         
2      791       393       29688     290       52        161       161       979       1         4         
2      549       842       29676     52        290       199       199       983       1         3         
1      842       676       29728     290       189       159       159       994       1         3         
2      887       905       29606     290       290       265       265       996       1         2         
1      981       739       29682     291       189       181       181       1022      1         2         
1      1003      673       29686     291       189       183       183       1023      1         2         
3      926       760       29568     290       291       343       343       1041      1         2         
1      458       574       29710     52        189       124       124       1084      1         2         
1      1066      1218      29706     291       84        142       142       1088      1         4         
1      991       925       29703     290       290       162       162       1118      1         2         
1      1022      693       29718     291       280       147       147       1136      1         4         
1      827       937       29689     291       291       152       152       1141      1         2         
2      457       557       29721     52        189       153       153       1189      1         2         
1      970       1225      29724     290       192       165       165       1199      1         3         
1      1065      916       29703     291       291       129       129       1228      1         2         
1      440       232       29728     168       266       129       129       1265      1         3         
2      968       698       29696     290       189       209       209       1281      1         2         
2      413       720       29682     52        290       146       146       1337      1         2         
1      305       134       29670     299       9         256       256       1352      1         2         
1      344       189       29717     299       286       199       199       1713      1         2         
1      510       1517      29728     199       296       101       101       1797      1         3         
1      816       696       29678     290       189       221       221       1802      1         3         
1      197       331       29688     178       127       153       153       1831      1         3         
1      217       201       29680     87        87        191       191       1880      1         2         
2      913       618       29718     291       131       173       173       1900      1         2         
1      526       737       29715     52        189       160.5     160.5     1907      1         4         
1      481       545       29701     189       52        136       136       1910      1         2         
1      835       991       29722     290       290       157       157       1932      1         4         
1      464       208       29730     168       286       0         0         0         0         0         
1      835       573       29731     290       189       0         0         0         0         0         
1      842       905       29731     290       290       0         0         0         0         0         
1      417       295       29731     100       87        0         0         0         0         0         
1      742       578       29731     290       189       0         0         0         0         0         
1      194       134       29732     207       9         0         0         0         0         0         
4      873       674       29732     291       189       0         0         0         0         0         
2      983       647       29732     291       280       0         0         0         0         0         
1      295       148       29732     87        178       0         0         0         0         0         
1      972       836       29732     290       290       0         0         0         0         0         
1      702       557       29732     290       189       0         0         0         0         0         
1      779       473       29732     131       52        0         0         0         0         0         
2      924       11        29733     290       999       0         0         0         0         0         
3      924       11        29733     290       999       0         0         0         0         0         
1      133       600       29733     9         280       0         0         0         0         0         
1      505       464       29733     52        168       0         0         0         0         0         
1      607       79        29733     189       98        0         0         0         0         0         
1      557       64        29734     189       98        0         0         0         0         0         
1      527       737       29734     52        189       0         0         0         0         0         
3      759       20        29734     131       98        0         0         0         0         0         
3      759       20        29734     131       98        0         0         0         0         0         
1      532       827       29735     199       291       0         0         0         0         0         
2      349       576       29735     127       189       0         0         0         0         0         
1      458       626       29735     52        189       0         0         0         0         0         
2      458       601       29735     52        189       0         0         0         0         0         
1      1066      1066      29735     291       291       0         0         0         0         0         
1      1046      748       29736     291       290       0         0         0         0         0         
1      838       727       29736     290       290       0         0         0         0         0         
1      873       982       29736     291       291       0         0         0         0         0         
1      556       982       29736     199       291       0         0         0         0         0         
1      373       662       29736     119       131       0         0         0         0         0         
1      488       557       29737     199       189       0         0         0         0         0         
1      431       671       29737     52        280       0         0         0         0         0         
1      746       670       29737     290       280       0         0         0         0         0         
1      460       172       29737     189       286       0         0         0         0         0         
1      839       576       29737     290       189       0         0         0         0         0         
1      886       698       29737     290       189       0         0         0         0         0         
1      287       443       29738     299       168       0         0         0         0         0         
1      295       600       29738     87        280       0         0         0         0         0         
1      873       625       29739     291       189       0         0         0         0         0         
3      801       893       29740     291       291       0         0         0         0         0         
2      801       893       29740     291       291       0         0         0         0         0         
1      745       627       29740     290       189       0         0         0         0         0         
2      328       651       29740     299       189       0         0         0         0         0         
1      130       233       29740     178       206       0         0         0         0         0         
1      1300      1046      29740     192       291       0         0         0         0         0         
1      598       737       29741     189       189       0         0         0         0         0         
1      604       698       29741     189       189       0         0         0         0         0         
1      696       650       29741     189       189       0         0         0         0         0         
4      127       82        29741     178       98        0         0         0         0         0         
3      605       509       29742     189       199       0         0         0         0         0         
1      1010      629       29742     290       189       0         0         0         0         0         
1      419       694       29742     168       189       0         0         0         0         0         
2      605       509       29742     189       199       0         0         0         0         0         
3      740       1067      29743     50        291       0         0         0         0         0         
1      481       650       29743     189       189       0         0         0         0         0         
3      710       526       29743     131       52        0         0         0         0         0         
2      740       1067      29743     50        291       0         0         0         0         0         
1      1106      694       29743     291       189       0         0         0         0         0         
1      529       557       29744     189       189       0         0         0         0         0         
1      1044      749       29744     291       290       0         0         0         0         0         
1      373       601       29744     119       189       0         0         0         0         0         
1      527       138       29744     52        57        0         0         0         0         0         
2      700       770       29744     290       290       0         0         0         0         0         
2      668       537       29745     280       189       0         0         0         0         0         
1      1004      577       29745     291       189       0         0         0         0         0         
1      550       410       29745     189       52        0         0         0         0         0         
1      1207      852       29745     192       291       0         0         0         0         0         
2      458       212       29745     52        266       0         0         0         0         0         
1      485       65        29745     189       98        0         0         0         0         0         
1      980       1263      29745     291       192       0         0         0         0         0         
1      654       557       29745     189       189       0         0         0         0         0         
1      476       669       29745     52        280       0         0         0         0         0         
2      598       650       29746     189       189       0         0         0         0         0         
1      1002      1208      29746     291       192       0         0         0         0         0         
3      694       9         29746     189       98        0         0         0         0         0         
1      746       583       29746     290       189       0         0         0         0         0         
1      722       882       29746     290       290       0         0         0         0         0         
3      598       650       29746     189       189       0         0         0         0         0         
3      220       217       29747     87        87        0         0         0         0         0         
1      527       627       29747     52        189       0         0         0         0         0         
1      598       648       29747     189       189       0         0         0         0         0         
1      1149      1025      29747     291       291       0         0         0         0         0         
1      287       208       29747     299       286       0         0         0         0         0         
1      526       416       29747     52        100       0         0         0         0         0         
3      904       626       29747     290       189       0         0         0         0         0         
3      904       626       29747     290       189       0         0         0         0         0         
3      220       217       29747     87        87        0         0         0         0         0         
1      970       925       29747     290       290       0         0         0         0         0         
1      772       721       29747     290       290       0         0         0         0         0         
1      1209      580       29748     192       189       0         0         0         0         0         
1      581       690       29748     189       131       0         0         0         0         0         
3      1000      210       29748     291       266       0         0         0         0         0         
3      816       884       29748     290       290       0         0         0         0         0         
3      816       884       29748     290       290       0         0         0         0         0         
1      328       235       29749     299       87        0         0         0         0         0         
1      826       915       29749     291       291       0         0         0         0         0         
1      118       436       29749     286       100       0         0         0         0         0         
1      498       631       29749     52        189       0         0         0         0         0         
1      43        79        29749     9         98        0         0         0         0         0         
1      1187      1089      29749     291       291       0         0         0         0         0         
1      366       760       29750     299       291       0         0         0         0         0         
3      232       692       29750     266       280       0         0         0         0         0         
2      575       415       29751     189       100       0         0         0         0         0         
1      284       273       29751     299       206       0         0         0         0         0         
4      327       229       29751     299       266       0         0         0         0         0         
1      509       416       29751     199       100       0         0         0         0         0         
1      106       104       29751     178       287       0         0         0         0         0         
1      397       463       29751     168       168       0         0         0         0         0         
1      793       444       29751     290       168       0         0         0         0         0         
1      862       701       29751     290       290       0         0         0         0         0         
2      509       452       29752     199       52        0         0         0         0         0         
3      509       452       29752     199       52        0         0         0         0         0         
1      693       438       29753     280       100       0         0         0         0         0         
1      304       250       29753     299       127       0         0         0         0         0         
1      970       694       29753     290       189       0         0         0         0         0         
1      527       789       29753     52        290       0         0         0         0         0         
3      760       604       29753     291       189       0         0         0         0         0         
3      760       604       29753     291       189       0         0         0         0         0         
1      790       604       29753     290       189       0         0         0         0         0         
1      508       923       29753     199       290       0         0         0         0         0         
2      1579      1225      29754     296       192       0         0         0         0         0         
3      1579      1225      29754     296       192       0         0         0         0         0         
1      371       604       29754     52        189       0         0         0         0         0         
1      937       1263      29754     291       192       0         0         0         0         0         
1      197       20        29754     178       98        0         0         0         0         0         
1      410       604       29754     52        189       0         0         0         0         0         
1      693       599       29754     280       280       0         0         0         0         0         
2      527       579       29754     52        189       0         0         0         0         0         
1      695       10        29754     189       98        0         0         0         0         0         
1      293       229       29754     87        266       0         0         0         0         0         
1      210       552       29754     266       189       0         0         0         0         0         
3      716       858       29755     189       290       0         0         0         0         0         
1      604       676       29755     189       189       0         0         0         0         0         
1      413       718       29755     52        189       0         0         0         0         0         
2      716       858       29755     189       290       0         0         0         0         0         
1      598       438       29755     189       100       0         0         0         0         0         
1      813       605       29756     290       189       0         0         0         0         0         
2      827       824       29756     291       291       0         0         0         0         0         
1      881       946       29756     290       290       0         0         0         0         0         
1      573       391       29756     189       52        0         0         0         0         0         
1      749       674       29757     290       189       0         0         0         0         0         
1      556       674       29757     199       189       0         0         0         0         0         
1      155       414       29757     286       100       0         0         0         0         0         
1      48        604       29757     98        189       0         0         0         0         0         
1      325       116       29758     299       9         0         0         0         0         0         
2      945       717       29758     50        189       0         0         0         0         0         
1      375       463       29758     119       168       0         0         0         0         0         
1      757       600       29758     131       280       0         0         0         0         0         
3      876       399       29758     50        168       0         0         0         0         0         
1      624       551       29758     189       189       0         0         0         0         0         
1      481       509       29759     189       199       0         0         0         0         0         
1      597       671       29759     131       280       0         0         0         0         0         
1      179       210       29759     178       266       0         0         0         0         0         
1      810       724       29759     290       290       0         0         0         0         0         
